Translating instance to solver...

Set parameter TimeLimit to value 28800
Gurobi Optimizer version 11.0.2 build v11.0.2rc0 (linux64 - "Ubuntu 22.04.4 LTS")

CPU model: Intel(R) Xeon(R) Gold 5120 CPU @ 2.20GHz, instruction set [SSE2|AVX|AVX2|AVX512]
Thread count: 28 physical cores, 56 logical processors, using up to 28 threads

Academic license 2463511 - for non-commercial use only - registered to lu___@cefet-rj.br
Optimize a model with 40945 rows, 21383 columns and 96975 nonzeros
Model fingerprint: 0xd6f932a2
Variable types: 1 continuous, 21382 integer (21340 binary)
Coefficient statistics:
  Matrix range     [1e+00, 1e+05]
  Objective range  [3e-01, 8e-01]
  Bounds range     [1e+00, 4e+01]
  RHS range        [1e+00, 4e+01]
Presolve removed 32334 rows and 17818 columns
Presolve time: 0.57s
Presolved: 8611 rows, 3565 columns, 25866 nonzeros
Variable types: 0 continuous, 3565 integer (3524 binary)

Root relaxation: objective 7.130320e-01, 620 iterations, 0.02 seconds (0.03 work units)

    Nodes    |    Current Node    |     Objective Bounds      |     Work
 Expl Unexpl |  Obj  Depth IntInf | Incumbent    BestBd   Gap | It/Node Time

     0     0    0.71303    0   57          -    0.71303      -     -    0s
H    0     0                       1.3676730    0.71303  47.9%     -    0s
H    0     0                       1.0617820    0.71303  32.8%     -    1s
     0     0    0.91767    0   56    1.06178    0.91767  13.6%     -    1s
     0     0    0.91767    0   66    1.06178    0.91767  13.6%     -    1s
     0     0    0.91767    0   58    1.06178    0.91767  13.6%     -    1s
     0     0    0.91767    0   65    1.06178    0.91767  13.6%     -    1s
     0     0    0.91767    0   85    1.06178    0.91767  13.6%     -    1s
     0     0    0.91767    0   65    1.06178    0.91767  13.6%     -    1s
     0     0    0.91767    0   65    1.06178    0.91767  13.6%     -    1s
     0     0    0.91767    0   62    1.06178    0.91767  13.6%     -    1s
     0     0    0.91767    0   62    1.06178    0.91767  13.6%     -    1s
     0     0    0.91767    0   68    1.06178    0.91767  13.6%     -    1s
     0     0    0.91767    0   73    1.06178    0.91767  13.6%     -    1s
     0     0    0.91767    0   66    1.06178    0.91767  13.6%     -    1s
     0     0    0.91767    0   80    1.06178    0.91767  13.6%     -    1s
     0     0    0.91767    0   75    1.06178    0.91767  13.6%     -    1s
     0     0    0.91767    0   83    1.06178    0.91767  13.6%     -    2s
     0     0    0.91767    0   81    1.06178    0.91767  13.6%     -    2s
     0     0    0.91767    0   20    1.06178    0.91767  13.6%     -    2s
     0     0    0.91767    0   37    1.06178    0.91767  13.6%     -    2s
     0     0    0.91767    0   22    1.06178    0.91767  13.6%     -    2s
     0     0    0.91767    0   96    1.06178    0.91767  13.6%     -    2s
     0     0    0.91767    0   22    1.06178    0.91767  13.6%     -    2s
     0     0    0.91767    0   22    1.06178    0.91767  13.6%     -    3s
     0     2    0.91767    0   22    1.06178    0.91767  13.6%     -    3s
   222     2    1.02418   43  111    1.06178    1.02418  3.54%  44.9    5s

Cutting planes:
  Learned: 36
  Gomory: 1
  Implied bound: 78
  MIR: 41
  Zero half: 16
  RLT: 22
  Relax-and-lift: 31

Explored 232 nodes (21878 simplex iterations) in 5.03 seconds (3.74 work units)
Thread count was 28 (of 56 available processors)

Solution count 2: 1.06178 1.36767 

Optimal solution found (tolerance 1.00e-04)
Best objective 1.061782000000e+00, best bound 1.061782000000e+00, gap 0.0000%

Solver Wallclock Time (for this epsilon): 5.029979944229126 s
Python wallclock Time (for this epsilon): 7.928871154785156 s


Total Elapsed Time (since program call): 98.04715085029602 s

Results:

I = 1.061782 mA
C = 51.0 points
C ~= 20.400000000000002 km^2

Minimum Epsilon for this instance = 9
Maximum Epsilon for this instance = 98

Current Epsilon = 27


Preprocessing Time (for this epsilon): 0.0067865848541259766 s


Updated solution vectors:
sol_I = [-0.611782,-0.9176730000000001,-1.061782]
sol_C = [11.0,19.0,51.0]
sol_eps = [9,18,27]
sol_gap = [0.0,0.0,0.0]
